NAME : X-n766-k71
COMMENT : "Generated by Uchoa, Pecin, Pessoa, Poggi, Subramanian, and Vidal (2013)"
TYPE : CVRP
DIMENSION : 766
EDGE_WEIGHT_TYPE : EUC_2D
CAPACITY : 166
NODE_COORD_SECTION
1 0 0
2 409 418
3 378 220
4 469 585
5 91 695
6 455 648
7 86 403
8 493 292
9 124 630
10 43 202
11 961 668
12 538 143
13 114 523
14 273 287
15 884 865
16 551 791
17 609 232
18 69 625
19 191 484
20 562 650
21 858 506
22 688 951
23 174 158
24 175 404
25 314 484
26 210 517
27 574 158
28 76 499
29 136 195
30 47 593
31 87 897
32 526 650
33 683 60
34 437 962
35 863 428
36 866 335
37 16 391
38 948 422
39 1 945
40 13 299
41 404 889
42 974 290
43 59 281
44 966 52
45 815 145
46 238 897
47 546 414
48 297 370
49 421 143
50 292 86
51 420 958
52 661 796
53 98 757
54 15 722
55 599 669
56 287 134
57 925 251
58 115 179
59 449 945
60 487 960
61 683 779
62 628 855
63 290 322
64 145 109
65 356 887
66 416 654
67 899 981
68 228 187
69 634 10
70 673 503
71 999 237
72 280 64
73 407 977
74 417 841
75 773 52
76 922 376
77 270 503
78 998 123
79 353 527
80 352 21
81 19 697
82 590 322
83 326 401
84 851 668
85 156 557
86 700 423
87 232 556
88 272 248
89 383 472
90 659 930
91 62 513
92 551 459
93 108 723
94 127 359
95 765 936
96 199 264
97 942 980
98 595 746
99 736 127
100 808 393
101 194 803
102 879 138
103 329 531
104 544 840
105 384 143
106 622 102
107 350 231
108 656 364
109 730 846
110 800 218
111 556 454
112 967 994
113 654 141
114 213 582
115 158 64
116 381 518
117 281 153
118 991 305
119 322 68
120 378 996
121 941 397
122 89 16
123 666 113
124 518 249
125 665 277
126 796 357
127 759 988
128 938 366
129 688 589
130 224 487
131 626 118
132 852 200
133 948 17
134 816 580
135 243 75
136 55 873
137 585 640
138 841 326
139 41 67
140 418 268
141 445 424
142 897 432
143 404 444
144 391 537
145 574 728
146 411 117
147 167 197
148 502 596
149 724 799
150 137 619
151 121 457
152 857 627
153 847 277
154 658 690
155 508 997
156 638 579
157 601 692
158 884 98
159 524 729
160 610 664
161 845 965
162 554 127
163 817 205
164 612 861
165 142 905
166 735 77
167 990 120
168 63 415
169 259 715
170 322 763
171 97 810
172 459 337
173 664 488
174 538 13
175 148 748
176 876 902
177 30 706
178 434 176
179 604 49
180 464 151
181 734 742
182 390 613
183 879 972
184 957 393
185 351 361
186 614 200
187 840 412
188 162 699
189 166 217
190 640 833
191 309 407
192 468 408
193 663 357
194 834 918
195 560 636
196 338 624
197 29 716
198 885 881
199 819 918
200 818 716
201 657 620
202 315 660
203 767 710
204 28 821
205 639 287
206 973 213
207 37 615
208 669 338
209 273 325
210 533 9
211 716 872
212 517 434
213 561 232
214 0 537
215 843 863
216 929 542
217 705 899
218 207 798
219 911 610
220 339 859
221 612 102
222 316 810
223 365 275
224 760 848
225 393 15
226 313 107
227 104 662
228 280 739
229 860 699
230 517 239
231 982 715
232 570 26
233 27 603
234 71 270
235 301 17
236 376 970
237 618 71
238 451 280
239 322 295
240 21 95
241 552 836
242 957 868
243 756 914
244 911 695
245 456 521
246 216 642
247 266 379
248 23 325
249 157 140
250 689 733
251 971 840
252 420 309
253 187 599
254 160 281
255 942 581
256 736 235
257 283 191
258 243 947
259 701 533
260 688 457
261 882 105
262 880 403
263 727 763
264 570 595
265 623 916
266 841 842
267 950 982
268 752 33
269 853 91
270 224 467
271 252 39
272 184 424
273 117 489
274 956 1000
275 972 425
276 895 182
277 668 858
278 289 178
279 397 772
280 490 992
281 958 336
282 308 253
283 270 351
284 654 299
285 143 955
286 423 495
287 288 575
288 647 818
289 585 134
290 874 685
291 599 498
292 812 27
293 346 184
294 225 623
295 306 312
296 66 672
297 692 808
298 873 625
299 963 854
300 406 262
301 592 596
302 541 20
303 78 96
304 406 574
305 218 533
306 779 657
307 615 657
308 721 148
309 447 492
310 468 394
311 486 290
312 579 792
313 356 736
314 315 612
315 58 395
316 290 79
317 729 421
318 356 702
319 656 508
320 743 847
321 548 92
322 454 572
323 49 808
324 902 700
325 503 186
326 801 148
327 968 613
328 309 508
329 484 528
330 417 871
331 590 883
332 588 906
333 85 837
334 651 193
335 50 718
336 939 795
337 105 219
338 679 87
339 935 858
340 637 841
341 43 674
342 3 542
343 783 185
344 539 977
345 605 590
346 960 56
347 587 221
348 581 900
349 194 248
350 207 151
351 293 630
352 273 573
353 422 318
354 234 860
355 301 713
356 206 726
357 602 361
358 859 230
359 962 915
360 550 353
361 249 328
362 725 828
363 81 319
364 549 215
365 585 62
366 806 233
367 417 151
368 29 337
369 28 797
370 903 544
371 180 278
372 894 511
373 708 654
374 146 870
375 537 706
376 622 795
377 951 148
378 492 839
379 104 80
380 775 9
381 789 686
382 227 95
383 452 189
384 488 244
385 457 60
386 465 796
387 605 462
388 978 354
389 894 959
390 648 116
391 596 57
392 560 381
393 337 243
394 555 699
395 466 780
396 556 92
397 348 195
398 725 18
399 672 142
400 534 484
401 595 369
402 547 135
403 503 150
404 588 394
405 472 40
406 525 398
407 542 437
408 650 135
409 942 842
410 552 921
411 466 261
412 584 443
413 683 192
414 479 62
415 626 568
416 439 321
417 718 266
418 533 231
419 674 161
420 669 79
421 428 5
422 638 718
423 34 333
424 403 892
425 384 624
426 575 146
427 648 154
428 656 373
429 436 227
430 455 104
431 883 410
432 460 81
433 415 834
434 655 565
435 747 331
436 985 962
437 659 480
438 775 47
439 520 443
440 546 530
441 643 534
442 410 356
443 920 324
444 610 14
445 527 229
446 641 50
447 456 14
448 491 20
449 559 497
450 856 433
451 638 485
452 463 71
453 537 185
454 367 202
455 959 121
456 586 434
457 303 743
458 377 740
459 683 191
460 437 871
461 638 183
462 898 946
463 654 71
464 535 8
465 816 858
466 848 841
467 623 349
468 562 292
469 469 187
470 933 277
471 502 750
472 557 736
473 909 533
474 522 831
475 986 393
476 638 100
477 498 835
478 590 404
479 554 269
480 771 974
481 542 759
482 781 219
483 466 370
484 236 287
485 470 231
486 375 290
487 538 500
488 637 176
489 432 394
490 500 734
491 950 392
492 519 148
493 459 713
494 535 229
495 406 224
496 912 370
497 893 908
498 402 173
499 515 391
500 525 148
501 763 808
502 557 729
503 500 29
504 637 159
505 976 323
506 541 414
507 260 372
508 398 168
509 480 253
510 633 412
511 514 765
512 574 448
513 931 992
514 537 73
515 361 158
516 539 292
517 538 113
518 491 269
519 549 360
520 497 533
521 733 250
522 548 50
523 908 293
524 683 466
525 699 366
526 562 673
527 467 137
528 610 675
529 625 465
530 641 54
531 630 119
532 431 793
533 328 389
534 372 101
535 524 908
536 858 6
537 435 784
538 525 509
539 584 463
540 519 733
541 317 132
542 604 158
543 983 457
544 511 585
545 455 748
546 907 343
547 627 247
548 901 332
549 689 533
550 546 156
551 355 930
552 588 246
553 404 127
554 601 493
555 388 924
556 600 73
557 930 112
558 686 332
559 395 917
560 507 405
561 479 820
562 615 262
563 876 977
564 435 108
565 809 927
566 521 849
567 601 80
568 48 799
569 717 125
570 546 482
571 322 236
572 905 895
573 511 215
574 166 836
575 498 231
576 481 19
577 618 125
578 509 79
579 539 424
580 787 969
581 919 958
582 409 768
583 477 915
584 420 79
585 568 275
586 839 150
587 355 725
588 495 783
589 615 191
590 766 234
591 673 566
592 423 762
593 442 171
594 403 55
595 639 371
596 837 336
597 885 892
598 384 474
599 862 505
600 309 275
601 992 289
602 697 410
603 390 123
604 305 640
605 359 186
606 629 740
607 544 788
608 435 59
609 499 737
610 974 260
611 339 757
612 602 118
613 770 156
614 989 366
615 424 61
616 353 228
617 441 358
618 531 189
619 497 210
620 539 312
621 576 115
622 502 232
623 373 696
624 859 428
625 616 417
626 508 89
627 561 324
628 595 357
629 998 458
630 806 797
631 485 162
632 829 360
633 449 277
634 526 761
635 455 768
636 450 54
637 908 981
638 335 791
639 502 274
640 923 363
641 698 99
642 909 979
643 986 411
644 614 151
645 413 713
646 698 294
647 668 73
648 446 237
649 556 420
650 557 187
651 544 515
652 475 826
653 552 849
654 346 216
655 471 100
656 511 178
657 769 505
658 569 541
659 919 370
660 699 319
661 989 314
662 455 187
663 945 932
664 479 893
665 639 494
666 634 166
667 948 927
668 820 824
669 652 92
670 948 942
671 372 659
672 542 251
673 342 391
674 480 220
675 789 947
676 478 242
677 683 440
678 973 865
679 943 907
680 551 554
681 633 204
682 426 745
683 927 980
684 471 77
685 459 225
686 602 251
687 481 4
688 628 134
689 346 250
690 656 459
691 558 601
692 768 185
693 631 104
694 966 113
695 809 870
696 494 697
697 615 458
698 600 127
699 807 418
700 477 744
701 416 19
702 975 299
703 649 646
704 640 109
705 610 549
706 482 113
707 989 457
708 341 236
709 493 862
710 523 10
711 936 356
712 720 140
713 943 386
714 628 427
715 485 338
716 788 498
717 617 155
718 587 435
719 443 245
720 571 95
721 655 196
722 332 64
723 668 266
724 408 844
725 653 182
726 687 234
727 937 404
728 864 155
729 499 203
730 503 291
731 499 103
732 987 528
733 385 875
734 789 895
735 415 607
736 537 223
737 621 144
738 371 45
739 407 837
740 484 378
741 710 162
742 640 104
743 671 15
744 978 976
745 669 224
746 269 160
747 403 3
748 482 896
749 499 14
750 628 69
751 984 364
752 924 466
753 922 957
754 744 71
755 393 41
756 418 720
757 914 314
758 409 313
759 501 85
760 737 602
761 432 103
762 429 662
763 358 858
764 512 303
765 490 80
766 360 105
PICKUP_AND_DELIVERY_SECTION
1 0 0 1000000000 0 0 0
2 0 0 1000000000 0 0 85
3 0 0 1000000000 0 0 89
4 0 0 1000000000 0 0 71
5 0 0 1000000000 0 0 68
6 0 0 1000000000 0 0 52
7 0 0 1000000000 0 0 76
8 0 0 1000000000 0 0 57
9 0 0 1000000000 0 0 73
10 0 0 1000000000 0 0 89
11 0 0 1000000000 0 100 0
12 0 0 1000000000 0 0 61
13 0 0 1000000000 0 0 92
14 0 0 1000000000 0 0 99
15 0 0 1000000000 0 0 56
16 0 0 1000000000 0 0 91
17 0 0 1000000000 0 0 71
18 0 0 1000000000 0 0 69
19 0 0 1000000000 0 0 79
20 0 0 1000000000 0 0 93
21 0 0 1000000000 0 61 0
22 0 0 1000000000 0 0 94
23 0 0 1000000000 0 0 63
24 0 0 1000000000 0 0 89
25 0 0 1000000000 0 0 88
26 0 0 1000000000 0 0 100
27 0 0 1000000000 0 0 96
28 0 0 1000000000 0 0 92
29 0 0 1000000000 0 0 75
30 0 0 1000000000 0 0 69
31 0 0 1000000000 0 72 0
32 0 0 1000000000 0 0 86
33 0 0 1000000000 0 0 77
34 0 0 1000000000 0 0 68
35 0 0 1000000000 0 0 81
36 0 0 1000000000 0 0 100
37 0 0 1000000000 0 0 95
38 0 0 1000000000 0 0 68
39 0 0 1000000000 0 0 71
40 0 0 1000000000 0 0 79
41 0 0 1000000000 0 55 0
42 0 0 1000000000 0 0 73
43 0 0 1000000000 0 0 82
44 0 0 1000000000 0 0 67
45 0 0 1000000000 0 0 91
46 0 0 1000000000 0 0 96
47 0 0 1000000000 0 0 62
48 0 0 1000000000 0 0 76
49 0 0 1000000000 0 0 53
50 0 0 1000000000 0 0 78
51 0 0 1000000000 0 53 0
52 0 0 1000000000 0 0 61
53 0 0 1000000000 0 0 100
54 0 0 1000000000 0 0 70
55 0 0 1000000000 0 0 57
56 0 0 1000000000 0 0 99
57 0 0 1000000000 0 0 61
58 0 0 1000000000 0 0 55
59 0 0 1000000000 0 0 66
60 0 0 1000000000 0 0 57
61 0 0 1000000000 0 70 0
62 0 0 1000000000 0 0 73
63 0 0 1000000000 0 0 84
64 0 0 1000000000 0 0 80
65 0 0 1000000000 0 0 84
66 0 0 1000000000 0 0 94
67 0 0 1000000000 0 0 53
68 0 0 1000000000 0 0 99
69 0 0 1000000000 0 0 61
70 0 0 1000000000 0 0 96
71 0 0 1000000000 0 80 0
72 0 0 1000000000 0 0 67
73 0 0 1000000000 0 0 87
74 0 0 1000000000 0 0 91
75 0 0 1000000000 0 0 58
76 0 0 1000000000 0 0 84
77 0 0 1000000000 0 0 96
78 0 0 1000000000 0 0 96
79 0 0 1000000000 0 0 97
80 0 0 1000000000 0 0 68
81 0 0 1000000000 0 100 0
82 0 0 1000000000 0 0 60
83 0 0 1000000000 0 0 90
84 0 0 1000000000 0 0 81
85 0 0 1000000000 0 0 60
86 0 0 1000000000 0 0 91
87 0 0 1000000000 0 0 97
88 0 0 1000000000 0 0 55
89 0 0 1000000000 0 0 64
90 0 0 1000000000 0 0 75
91 0 0 1000000000 0 65 0
92 0 0 1000000000 0 0 67
93 0 0 1000000000 0 0 51
94 0 0 1000000000 0 0 60
95 0 0 1000000000 0 0 56
96 0 0 1000000000 0 0 62
97 0 0 1000000000 0 0 85
98 0 0 1000000000 0 0 73
99 0 0 1000000000 0 0 68
100 0 0 1000000000 0 0 81
101 0 0 1000000000 0 80 0
102 0 0 1000000000 0 0 100
103 0 0 1000000000 0 0 64
104 0 0 1000000000 0 0 84
105 0 0 1000000000 0 0 78
106 0 0 1000000000 0 0 54
107 0 0 1000000000 0 0 9
108 0 0 1000000000 0 0 6
109 0 0 1000000000 0 0 4
110 0 0 1000000000 0 0 3
111 0 0 1000000000 0 5 0
112 0 0 1000000000 0 0 7
113 0 0 1000000000 0 0 5
114 0 0 1000000000 0 0 6
115 0 0 1000000000 0 0 10
116 0 0 1000000000 0 0 4
117 0 0 1000000000 0 0 1
118 0 0 1000000000 0 0 4
119 0 0 1000000000 0 0 9
120 0 0 1000000000 0 0 5
121 0 0 1000000000 0 2 0
122 0 0 1000000000 0 0 5
123 0 0 1000000000 0 0 1
124 0 0 1000000000 0 0 7
125 0 0 1000000000 0 0 7
126 0 0 1000000000 0 0 10
127 0 0 1000000000 0 0 1
128 0 0 1000000000 0 0 9
129 0 0 1000000000 0 0 9
130 0 0 1000000000 0 0 5
131 0 0 1000000000 0 8 0
132 0 0 1000000000 0 0 2
133 0 0 1000000000 0 0 3
134 0 0 1000000000 0 0 8
135 0 0 1000000000 0 0 8
136 0 0 1000000000 0 0 9
137 0 0 1000000000 0 0 9
138 0 0 1000000000 0 0 5
139 0 0 1000000000 0 0 1
140 0 0 1000000000 0 0 1
141 0 0 1000000000 0 5 0
142 0 0 1000000000 0 0 2
143 0 0 1000000000 0 0 1
144 0 0 1000000000 0 0 5
145 0 0 1000000000 0 0 7
146 0 0 1000000000 0 0 10
147 0 0 1000000000 0 0 10
148 0 0 1000000000 0 0 6
149 0 0 1000000000 0 0 9
150 0 0 1000000000 0 0 3
151 0 0 1000000000 0 2 0
152 0 0 1000000000 0 0 3
153 0 0 1000000000 0 0 2
154 0 0 1000000000 0 0 2
155 0 0 1000000000 0 0 9
156 0 0 1000000000 0 0 3
157 0 0 1000000000 0 0 6
158 0 0 1000000000 0 0 8
159 0 0 1000000000 0 0 6
160 0 0 1000000000 0 0 9
161 0 0 1000000000 0 5 0
162 0 0 1000000000 0 0 10
163 0 0 1000000000 0 0 6
164 0 0 1000000000 0 0 10
165 0 0 1000000000 0 0 6
166 0 0 1000000000 0 0 7
167 0 0 1000000000 0 0 2
168 0 0 1000000000 0 0 1
169 0 0 1000000000 0 0 9
170 0 0 1000000000 0 0 4
171 0 0 1000000000 0 8 0
172 0 0 1000000000 0 0 7
173 0 0 1000000000 0 0 5
174 0 0 1000000000 0 0 9
175 0 0 1000000000 0 0 10
176 0 0 1000000000 0 0 3
177 0 0 1000000000 0 0 10
178 0 0 1000000000 0 0 5
179 0 0 1000000000 0 0 9
180 0 0 1000000000 0 0 7
181 0 0 1000000000 0 9 0
182 0 0 1000000000 0 0 8
183 0 0 1000000000 0 0 1
184 0 0 1000000000 0 0 8
185 0 0 1000000000 0 0 6
186 0 0 1000000000 0 0 9
187 0 0 1000000000 0 0 10
188 0 0 1000000000 0 0 6
189 0 0 1000000000 0 0 9
190 0 0 1000000000 0 0 2
191 0 0 1000000000 0 2 0
192 0 0 1000000000 0 0 3
193 0 0 1000000000 0 0 7
194 0 0 1000000000 0 0 4
195 0 0 1000000000 0 0 9
196 0 0 1000000000 0 0 2
197 0 0 1000000000 0 0 7
198 0 0 1000000000 0 0 7
199 0 0 1000000000 0 0 9
200 0 0 1000000000 0 0 7
201 0 0 1000000000 0 9 0
202 0 0 1000000000 0 0 8
203 0 0 1000000000 0 0 5
204 0 0 1000000000 0 0 5
205 0 0 1000000000 0 0 6
206 0 0 1000000000 0 0 6
207 0 0 1000000000 0 0 4
208 0 0 1000000000 0 0 2
209 0 0 1000000000 0 0 5
210 0 0 1000000000 0 0 5
211 0 0 1000000000 0 10 0
212 0 0 1000000000 0 0 8
213 0 0 1000000000 0 0 4
214 0 0 1000000000 0 0 2
215 0 0 1000000000 0 0 9
216 0 0 1000000000 0 0 3
217 0 0 1000000000 0 0 5
218 0 0 1000000000 0 0 10
219 0 0 1000000000 0 0 6
220 0 0 1000000000 0 0 7
221 0 0 1000000000 0 10 0
222 0 0 1000000000 0 0 2
223 0 0 1000000000 0 0 9
224 0 0 1000000000 0 0 5
225 0 0 1000000000 0 0 9
226 0 0 1000000000 0 0 9
227 0 0 1000000000 0 0 1
228 0 0 1000000000 0 0 10
229 0 0 1000000000 0 0 8
230 0 0 1000000000 0 0 3
231 0 0 1000000000 0 2 0
232 0 0 1000000000 0 0 9
233 0 0 1000000000 0 0 10
234 0 0 1000000000 0 0 2
235 0 0 1000000000 0 0 4
236 0 0 1000000000 0 0 7
237 0 0 1000000000 0 0 10
238 0 0 1000000000 0 0 7
239 0 0 1000000000 0 0 7
240 0 0 1000000000 0 0 6
241 0 0 1000000000 0 5 0
242 0 0 1000000000 0 0 3
243 0 0 1000000000 0 0 6
244 0 0 1000000000 0 0 2
245 0 0 1000000000 0 0 5
246 0 0 1000000000 0 0 8
247 0 0 1000000000 0 0 8
248 0 0 1000000000 0 0 9
249 0 0 1000000000 0 0 2
250 0 0 1000000000 0 0 5
251 0 0 1000000000 0 1 0
252 0 0 1000000000 0 0 9
253 0 0 1000000000 0 0 1
254 0 0 1000000000 0 0 1
255 0 0 1000000000 0 0 1
256 0 0 1000000000 0 0 7
257 0 0 1000000000 0 0 1
258 0 0 1000000000 0 0 7
259 0 0 1000000000 0 0 5
260 0 0 1000000000 0 0 8
261 0 0 1000000000 0 2 0
262 0 0 1000000000 0 0 6
263 0 0 1000000000 0 0 1
264 0 0 1000000000 0 0 9
265 0 0 1000000000 0 0 7
266 0 0 1000000000 0 0 8
267 0 0 1000000000 0 0 7
268 0 0 1000000000 0 0 7
269 0 0 1000000000 0 0 1
270 0 0 1000000000 0 0 3
271 0 0 1000000000 0 1 0
272 0 0 1000000000 0 0 5
273 0 0 1000000000 0 0 4
274 0 0 1000000000 0 0 10
275 0 0 1000000000 0 0 9
276 0 0 1000000000 0 0 1
277 0 0 1000000000 0 0 5
278 0 0 1000000000 0 0 7
279 0 0 1000000000 0 0 2
280 0 0 1000000000 0 0 1
281 0 0 1000000000 0 10 0
282 0 0 1000000000 0 0 9
283 0 0 1000000000 0 0 5
284 0 0 1000000000 0 0 5
285 0 0 1000000000 0 0 5
286 0 0 1000000000 0 0 3
287 0 0 1000000000 0 0 9
288 0 0 1000000000 0 0 2
289 0 0 1000000000 0 0 8
290 0 0 1000000000 0 0 1
291 0 0 1000000000 0 1 0
292 0 0 1000000000 0 0 7
293 0 0 1000000000 0 0 1
294 0 0 1000000000 0 0 9
295 0 0 1000000000 0 0 1
296 0 0 1000000000 0 0 9
297 0 0 1000000000 0 0 10
298 0 0 1000000000 0 0 7
299 0 0 1000000000 0 0 7
300 0 0 1000000000 0 0 7
301 0 0 1000000000 0 10 0
302 0 0 1000000000 0 0 8
303 0 0 1000000000 0 0 8
304 0 0 1000000000 0 0 3
305 0 0 1000000000 0 0 2
306 0 0 1000000000 0 0 9
307 0 0 1000000000 0 0 2
308 0 0 1000000000 0 0 9
309 0 0 1000000000 0 0 7
310 0 0 1000000000 0 0 2
311 0 0 1000000000 0 1 0
312 0 0 1000000000 0 0 9
313 0 0 1000000000 0 0 2
314 0 0 1000000000 0 0 3
315 0 0 1000000000 0 0 3
316 0 0 1000000000 0 0 7
317 0 0 1000000000 0 0 3
318 0 0 1000000000 0 0 8
319 0 0 1000000000 0 0 7
320 0 0 1000000000 0 0 2
321 0 0 1000000000 0 2 0
322 0 0 1000000000 0 0 4
323 0 0 1000000000 0 0 4
324 0 0 1000000000 0 0 1
325 0 0 1000000000 0 0 9
326 0 0 1000000000 0 0 5
327 0 0 1000000000 0 0 4
328 0 0 1000000000 0 0 3
329 0 0 1000000000 0 0 3
330 0 0 1000000000 0 0 3
331 0 0 1000000000 0 5 0
332 0 0 1000000000 0 0 10
333 0 0 1000000000 0 0 1
334 0 0 1000000000 0 0 3
335 0 0 1000000000 0 0 10
336 0 0 1000000000 0 0 3
337 0 0 1000000000 0 0 3
338 0 0 1000000000 0 0 4
339 0 0 1000000000 0 0 8
340 0 0 1000000000 0 0 7
341 0 0 1000000000 0 4 0
342 0 0 1000000000 0 0 6
343 0 0 1000000000 0 0 10
344 0 0 1000000000 0 0 7
345 0 0 1000000000 0 0 10
346 0 0 1000000000 0 0 9
347 0 0 1000000000 0 0 6
348 0 0 1000000000 0 0 8
349 0 0 1000000000 0 0 9
350 0 0 1000000000 0 0 1
351 0 0 1000000000 0 7 0
352 0 0 1000000000 0 0 10
353 0 0 1000000000 0 0 4
354 0 0 1000000000 0 0 7
355 0 0 1000000000 0 0 5
356 0 0 1000000000 0 0 1
357 0 0 1000000000 0 0 8
358 0 0 1000000000 0 0 6
359 0 0 1000000000 0 0 1
360 0 0 1000000000 0 0 3
361 0 0 1000000000 0 8 0
362 0 0 1000000000 0 0 9
363 0 0 1000000000 0 0 5
364 0 0 1000000000 0 0 7
365 0 0 1000000000 0 0 5
366 0 0 1000000000 0 0 1
367 0 0 1000000000 0 0 1
368 0 0 1000000000 0 0 7
369 0 0 1000000000 0 0 10
370 0 0 1000000000 0 0 5
371 0 0 1000000000 0 8 0
372 0 0 1000000000 0 0 8
373 0 0 1000000000 0 0 7
374 0 0 1000000000 0 0 2
375 0 0 1000000000 0 0 9
376 0 0 1000000000 0 0 6
377 0 0 1000000000 0 0 6
378 0 0 1000000000 0 0 1
379 0 0 1000000000 0 0 6
380 0 0 1000000000 0 0 10
381 0 0 1000000000 0 5 0
382 0 0 1000000000 0 0 3
383 0 0 1000000000 0 0 2
384 0 0 1000000000 0 0 8
385 0 0 1000000000 0 0 8
386 0 0 1000000000 0 0 5
387 0 0 1000000000 0 0 7
388 0 0 1000000000 0 0 1
389 0 0 1000000000 0 0 9
390 0 0 1000000000 0 0 4
391 0 0 1000000000 0 6 0
392 0 0 1000000000 0 0 1
393 0 0 1000000000 0 0 8
394 0 0 1000000000 0 0 5
395 0 0 1000000000 0 0 10
396 0 0 1000000000 0 0 1
397 0 0 1000000000 0 0 5
398 0 0 1000000000 0 0 5
399 0 0 1000000000 0 0 2
400 0 0 1000000000 0 0 7
401 0 0 1000000000 0 4 0
402 0 0 1000000000 0 0 6
403 0 0 1000000000 0 0 5
404 0 0 1000000000 0 0 4
405 0 0 1000000000 0 0 10
406 0 0 1000000000 0 0 1
407 0 0 1000000000 0 0 3
408 0 0 1000000000 0 0 1
409 0 0 1000000000 0 0 3
410 0 0 1000000000 0 0 1
411 0 0 1000000000 0 8 0
412 0 0 1000000000 0 0 5
413 0 0 1000000000 0 0 3
414 0 0 1000000000 0 0 7
415 0 0 1000000000 0 0 4
416 0 0 1000000000 0 0 9
417 0 0 1000000000 0 0 5
418 0 0 1000000000 0 0 8
419 0 0 1000000000 0 0 3
420 0 0 1000000000 0 0 2
421 0 0 1000000000 0 6 0
422 0 0 1000000000 0 0 2
423 0 0 1000000000 0 0 1
424 0 0 1000000000 0 0 10
425 0 0 1000000000 0 0 5
426 0 0 1000000000 0 0 6
427 0 0 1000000000 0 0 1
428 0 0 1000000000 0 0 6
429 0 0 1000000000 0 0 4
430 0 0 1000000000 0 0 7
431 0 0 1000000000 0 7 0
432 0 0 1000000000 0 0 6
433 0 0 1000000000 0 0 8
434 0 0 1000000000 0 0 9
435 0 0 1000000000 0 0 3
436 0 0 1000000000 0 0 9
437 0 0 1000000000 0 0 4
438 0 0 1000000000 0 0 6
439 0 0 1000000000 0 0 3
440 0 0 1000000000 0 0 2
441 0 0 1000000000 0 3 0
442 0 0 1000000000 0 0 1
443 0 0 1000000000 0 0 2
444 0 0 1000000000 0 0 7
445 0 0 1000000000 0 0 6
446 0 0 1000000000 0 0 5
447 0 0 1000000000 0 0 5
448 0 0 1000000000 0 0 4
449 0 0 1000000000 0 0 10
450 0 0 1000000000 0 0 9
451 0 0 1000000000 0 5 0
452 0 0 1000000000 0 0 8
453 0 0 1000000000 0 0 1
454 0 0 1000000000 0 0 3
455 0 0 1000000000 0 0 9
456 0 0 1000000000 0 0 2
457 0 0 1000000000 0 0 2
458 0 0 1000000000 0 0 3
459 0 0 1000000000 0 0 1
460 0 0 1000000000 0 0 2
461 0 0 1000000000 0 4 0
462 0 0 1000000000 0 0 10
463 0 0 1000000000 0 0 7
464 0 0 1000000000 0 0 7
465 0 0 1000000000 0 0 6
466 0 0 1000000000 0 0 7
467 0 0 1000000000 0 0 2
468 0 0 1000000000 0 0 3
469 0 0 1000000000 0 0 3
470 0 0 1000000000 0 0 10
471 0 0 1000000000 0 2 0
472 0 0 1000000000 0 0 3
473 0 0 1000000000 0 0 9
474 0 0 1000000000 0 0 4
475 0 0 1000000000 0 0 1
476 0 0 1000000000 0 0 7
477 0 0 1000000000 0 0 6
478 0 0 1000000000 0 0 10
479 0 0 1000000000 0 0 7
480 0 0 1000000000 0 0 8
481 0 0 1000000000 0 3 0
482 0 0 1000000000 0 0 1
483 0 0 1000000000 0 0 5
484 0 0 1000000000 0 0 10
485 0 0 1000000000 0 0 6
486 0 0 1000000000 0 0 8
487 0 0 1000000000 0 0 2
488 0 0 1000000000 0 0 10
489 0 0 1000000000 0 0 1
490 0 0 1000000000 0 0 10
491 0 0 1000000000 0 3 0
492 0 0 1000000000 0 0 4
493 0 0 1000000000 0 0 8
494 0 0 1000000000 0 0 6
495 0 0 1000000000 0 0 6
496 0 0 1000000000 0 0 1
497 0 0 1000000000 0 0 8
498 0 0 1000000000 0 0 2
499 0 0 1000000000 0 0 6
500 0 0 1000000000 0 0 1
501 0 0 1000000000 0 8 0
502 0 0 1000000000 0 0 6
503 0 0 1000000000 0 0 2
504 0 0 1000000000 0 0 6
505 0 0 1000000000 0 0 3
506 0 0 1000000000 0 0 2
507 0 0 1000000000 0 0 9
508 0 0 1000000000 0 0 8
509 0 0 1000000000 0 0 7
510 0 0 1000000000 0 0 5
511 0 0 1000000000 0 5 0
512 0 0 1000000000 0 0 1
513 0 0 1000000000 0 0 8
514 0 0 1000000000 0 0 7
515 0 0 1000000000 0 0 7
516 0 0 1000000000 0 0 1
517 0 0 1000000000 0 0 5
518 0 0 1000000000 0 0 2
519 0 0 1000000000 0 0 3
520 0 0 1000000000 0 0 6
521 0 0 1000000000 0 4 0
522 0 0 1000000000 0 0 8
523 0 0 1000000000 0 0 9
524 0 0 1000000000 0 0 3
525 0 0 1000000000 0 0 8
526 0 0 1000000000 0 0 7
527 0 0 1000000000 0 0 5
528 0 0 1000000000 0 0 2
529 0 0 1000000000 0 0 8
530 0 0 1000000000 0 0 7
531 0 0 1000000000 0 8 0
532 0 0 1000000000 0 0 5
533 0 0 1000000000 0 0 3
534 0 0 1000000000 0 0 5
535 0 0 1000000000 0 0 6
536 0 0 1000000000 0 0 4
537 0 0 1000000000 0 0 9
538 0 0 1000000000 0 0 8
539 0 0 1000000000 0 0 6
540 0 0 1000000000 0 0 3
541 0 0 1000000000 0 10 0
542 0 0 1000000000 0 0 1
543 0 0 1000000000 0 0 9
544 0 0 1000000000 0 0 8
545 0 0 1000000000 0 0 6
546 0 0 1000000000 0 0 9
547 0 0 1000000000 0 0 1
548 0 0 1000000000 0 0 5
549 0 0 1000000000 0 0 9
550 0 0 1000000000 0 0 5
551 0 0 1000000000 0 3 0
552 0 0 1000000000 0 0 3
553 0 0 1000000000 0 0 4
554 0 0 1000000000 0 0 10
555 0 0 1000000000 0 0 2
556 0 0 1000000000 0 0 1
557 0 0 1000000000 0 0 7
558 0 0 1000000000 0 0 7
559 0 0 1000000000 0 0 8
560 0 0 1000000000 0 0 2
561 0 0 1000000000 0 9 0
562 0 0 1000000000 0 0 3
563 0 0 1000000000 0 0 9
564 0 0 1000000000 0 0 6
565 0 0 1000000000 0 0 10
566 0 0 1000000000 0 0 10
567 0 0 1000000000 0 0 6
568 0 0 1000000000 0 0 8
569 0 0 1000000000 0 0 7
570 0 0 1000000000 0 0 4
571 0 0 1000000000 0 7 0
572 0 0 1000000000 0 0 3
573 0 0 1000000000 0 0 7
574 0 0 1000000000 0 0 2
575 0 0 1000000000 0 0 3
576 0 0 1000000000 0 0 9
577 0 0 1000000000 0 0 1
578 0 0 1000000000 0 0 9
579 0 0 1000000000 0 0 2
580 0 0 1000000000 0 0 2
581 0 0 1000000000 0 2 0
582 0 0 1000000000 0 0 1
583 0 0 1000000000 0 0 6
584 0 0 1000000000 0 0 3
585 0 0 1000000000 0 0 4
586 0 0 1000000000 0 0 9
587 0 0 1000000000 0 0 4
588 0 0 1000000000 0 0 2
589 0 0 1000000000 0 0 7
590 0 0 1000000000 0 0 7
591 0 0 1000000000 0 6 0
592 0 0 1000000000 0 0 3
593 0 0 1000000000 0 0 2
594 0 0 1000000000 0 0 5
595 0 0 1000000000 0 0 3
596 0 0 1000000000 0 0 8
597 0 0 1000000000 0 0 1
598 0 0 1000000000 0 0 5
599 0 0 1000000000 0 0 5
600 0 0 1000000000 0 0 2
601 0 0 1000000000 0 2 0
602 0 0 1000000000 0 0 3
603 0 0 1000000000 0 0 3
604 0 0 1000000000 0 0 3
605 0 0 1000000000 0 0 3
606 0 0 1000000000 0 0 10
607 0 0 1000000000 0 0 9
608 0 0 1000000000 0 0 8
609 0 0 1000000000 0 0 6
610 0 0 1000000000 0 0 10
611 0 0 1000000000 0 2 0
612 0 0 1000000000 0 0 6
613 0 0 1000000000 0 0 4
614 0 0 1000000000 0 0 1
615 0 0 1000000000 0 0 5
616 0 0 1000000000 0 0 9
617 0 0 1000000000 0 0 6
618 0 0 1000000000 0 0 6
619 0 0 1000000000 0 0 7
620 0 0 1000000000 0 0 8
621 0 0 1000000000 0 1 0
622 0 0 1000000000 0 0 10
623 0 0 1000000000 0 0 3
624 0 0 1000000000 0 0 8
625 0 0 1000000000 0 0 10
626 0 0 1000000000 0 0 4
627 0 0 1000000000 0 0 1
628 0 0 1000000000 0 0 2
629 0 0 1000000000 0 0 9
630 0 0 1000000000 0 0 10
631 0 0 1000000000 0 6 0
632 0 0 1000000000 0 0 9
633 0 0 1000000000 0 0 5
634 0 0 1000000000 0 0 8
635 0 0 1000000000 0 0 7
636 0 0 1000000000 0 0 3
637 0 0 1000000000 0 0 8
638 0 0 1000000000 0 0 7
639 0 0 1000000000 0 0 9
640 0 0 1000000000 0 0 7
641 0 0 1000000000 0 1 0
642 0 0 1000000000 0 0 5
643 0 0 1000000000 0 0 2
644 0 0 1000000000 0 0 10
645 0 0 1000000000 0 0 10
646 0 0 1000000000 0 0 10
647 0 0 1000000000 0 0 10
648 0 0 1000000000 0 0 4
649 0 0 1000000000 0 0 3
650 0 0 1000000000 0 0 6
651 0 0 1000000000 0 5 0
652 0 0 1000000000 0 0 2
653 0 0 1000000000 0 0 10
654 0 0 1000000000 0 0 9
655 0 0 1000000000 0 0 10
656 0 0 1000000000 0 0 10
657 0 0 1000000000 0 0 6
658 0 0 1000000000 0 0 2
659 0 0 1000000000 0 0 7
660 0 0 1000000000 0 0 3
661 0 0 1000000000 0 6 0
662 0 0 1000000000 0 0 9
663 0 0 1000000000 0 0 10
664 0 0 1000000000 0 0 9
665 0 0 1000000000 0 0 9
666 0 0 1000000000 0 0 10
667 0 0 1000000000 0 0 2
668 0 0 1000000000 0 0 8
669 0 0 1000000000 0 0 5
670 0 0 1000000000 0 0 6
671 0 0 1000000000 0 6 0
672 0 0 1000000000 0 0 9
673 0 0 1000000000 0 0 1
674 0 0 1000000000 0 0 6
675 0 0 1000000000 0 0 6
676 0 0 1000000000 0 0 5
677 0 0 1000000000 0 0 2
678 0 0 1000000000 0 0 8
679 0 0 1000000000 0 0 6
680 0 0 1000000000 0 0 9
681 0 0 1000000000 0 7 0
682 0 0 1000000000 0 0 9
683 0 0 1000000000 0 0 9
684 0 0 1000000000 0 0 5
685 0 0 1000000000 0 0 9
686 0 0 1000000000 0 0 6
687 0 0 1000000000 0 0 10
688 0 0 1000000000 0 0 10
689 0 0 1000000000 0 0 3
690 0 0 1000000000 0 0 3
691 0 0 1000000000 0 2 0
692 0 0 1000000000 0 0 1
693 0 0 1000000000 0 0 4
694 0 0 1000000000 0 0 5
695 0 0 1000000000 0 0 1
696 0 0 1000000000 0 0 7
697 0 0 1000000000 0 0 6
698 0 0 1000000000 0 0 3
699 0 0 1000000000 0 0 9
700 0 0 1000000000 0 0 8
701 0 0 1000000000 0 8 0
702 0 0 1000000000 0 0 9
703 0 0 1000000000 0 0 3
704 0 0 1000000000 0 0 6
705 0 0 1000000000 0 0 7
706 0 0 1000000000 0 0 5
707 0 0 1000000000 0 0 6
708 0 0 1000000000 0 0 4
709 0 0 1000000000 0 0 1
710 0 0 1000000000 0 0 9
711 0 0 1000000000 0 5 0
712 0 0 1000000000 0 0 7
713 0 0 1000000000 0 0 1
714 0 0 1000000000 0 0 9
715 0 0 1000000000 0 0 3
716 0 0 1000000000 0 0 10
717 0 0 1000000000 0 0 9
718 0 0 1000000000 0 0 4
719 0 0 1000000000 0 0 6
720 0 0 1000000000 0 0 2
721 0 0 1000000000 0 2 0
722 0 0 1000000000 0 0 9
723 0 0 1000000000 0 0 10
724 0 0 1000000000 0 0 9
725 0 0 1000000000 0 0 8
726 0 0 1000000000 0 0 9
727 0 0 1000000000 0 0 10
728 0 0 1000000000 0 0 4
729 0 0 1000000000 0 0 9
730 0 0 1000000000 0 0 8
731 0 0 1000000000 0 2 0
732 0 0 1000000000 0 0 7
733 0 0 1000000000 0 0 8
734 0 0 1000000000 0 0 10
735 0 0 1000000000 0 0 2
736 0 0 1000000000 0 0 1
737 0 0 1000000000 0 0 3
738 0 0 1000000000 0 0 5
739 0 0 1000000000 0 0 5
740 0 0 1000000000 0 0 10
741 0 0 1000000000 0 1 0
742 0 0 1000000000 0 0 5
743 0 0 1000000000 0 0 8
744 0 0 1000000000 0 0 2
745 0 0 1000000000 0 0 6
746 0 0 1000000000 0 0 8
747 0 0 1000000000 0 0 8
748 0 0 1000000000 0 0 1
749 0 0 1000000000 0 0 2
750 0 0 1000000000 0 0 5
751 0 0 1000000000 0 1 0
752 0 0 1000000000 0 0 8
753 0 0 1000000000 0 0 6
754 0 0 1000000000 0 0 1
755 0 0 1000000000 0 0 2
756 0 0 1000000000 0 0 1
757 0 0 1000000000 0 0 8
758 0 0 1000000000 0 0 5
759 0 0 1000000000 0 0 1
760 0 0 1000000000 0 0 4
761 0 0 1000000000 0 10 0
762 0 0 1000000000 0 0 9
763 0 0 1000000000 0 0 2
764 0 0 1000000000 0 0 7
765 0 0 1000000000 0 0 8
766 0 0 1000000000 0 0 9
